(set-logic HORN)
(declare-fun state (Int Int (Array Int Int) Int Int Bool Bool Bool Bool Int Int) Bool)
(assert (forall ((|A_14| Int) (|B_13| Int) (|C_13| (Array Int Int)) (|D_13| Int) (|.y.6| Int) (|.loc.7| Bool) (|.loc.8| Bool) (|.loc.9| Bool) (|.loc.10| Bool) (|H_14| Int) (|H_15| Int) (|I_13| Int) (|.x.29| Int) (|.loc.12| Bool) (|.loc.15| Bool) (|.loc.13| Bool) (|.loc.14| Bool) (|.y.11| Int) (|.x.28| (Array Int Int)) (|.x.27| Int) (|.xtv.1| Int) (|.xpv.1| Int)) (=> (and (and (and (not .loc.7) (not .loc.8)) (not .loc.9)) (not .loc.10)) (state |A_14| |B_13| |C_13| |D_13| |.y.6| |.loc.7| |.loc.8| |.loc.9| |.loc.10| |H_14| |H_15|))))
(assert (forall ((|A_14| Int) (|B_13| Int) (|C_13| (Array Int Int)) (|D_13| Int) (|.y.6| Int) (|.loc.7| Bool) (|.loc.8| Bool) (|.loc.9| Bool) (|.loc.10| Bool) (|H_14| Int) (|H_15| Int) (|I_13| Int) (|.x.29| Int) (|.loc.12| Bool) (|.loc.15| Bool) (|.loc.13| Bool) (|.loc.14| Bool) (|.y.11| Int) (|.x.28| (Array Int Int)) (|.x.27| Int) (|.xtv.1| Int) (|.xpv.1| Int)) (=> (and (state |A_14| |B_13| |C_13| |D_13| |.y.6| |.loc.7| |.loc.8| |.loc.9| |.loc.10| |H_14| |H_15|) (let ((.def_21 (not .loc.7))) (let ((.def_22 (not .loc.8))) (let ((.def_24 (not .loc.9))) (let ((.def_26 (not .loc.10))) (let ((.def_33 (<= D_13 B_13))) (let ((.def_60 (<= A_14 0))) (let ((.def_61 (not .def_60))) (let ((.def_67 (or .def_60 (not (<= H_14 0))))) (let ((.def_72 (not .loc.12))) (let ((.def_76 (not .loc.13))) (let ((.def_79 (not .loc.14))) (let ((.def_89 (not .loc.15))) (let ((.def_92 (= .y.11 0))) (let ((.def_94 (= D_13 I_13))) (let ((.def_98 (= C_13 .x.28))) (let ((.def_102 (not .def_33))) (let ((.def_103 (and .loc.7 .def_102))) (let ((.def_104 (and .loc.8 .def_103))) (let ((.def_117 (= (+ B_13 (* (- 1) .y.11)) (- 1)))) (let ((.def_121 (= (+ A_14 (+ B_13 (* (- 1) H_14))) 0))) (let ((.def_124 (and .def_33 .def_98))) (let ((.def_125 (and .loc.7 .def_124))) (let ((.def_139 (and .loc.8 .def_102))) (let ((.def_265 (= A_14 .x.27))) (or (or (and (or (or (or (or (or (or (or (or (or (or (or (and (or (and (or (and .def_26 (and .loc.9 (and .loc.8 (and .loc.7 (and (= I_13 0) (and (= D_13 .x.29) .def_33)))))) (and (= .y.6 .x.29) (and (and (= (+ D_13 (* (- 1) I_13)) (- 1)) (and (= (+ A_14 (+ D_13 (* (- 1) H_14))) 0) (and (and (not (<= .y.6 D_13)) (and (= (select C_13 H_14) 48) (and .def_21 (and .def_22 (and .loc.10 .def_24))))) .def_61))) .def_67))) (and (and (and .def_72 .loc.15) .def_76) .def_79)) (and (and (and (and .def_21 (and .loc.14 (and .loc.13 (and .loc.12 (and .def_26 (and .loc.9 (and .loc.8 .def_33))))))) .def_89) .def_92) .def_94)) .def_98) (and (and (and (= .x.28 (store C_13 H_14 48)) (and .def_94 (and .def_89 (and .def_67 (and .def_61 (and .loc.14 (and .loc.13 (and .loc.12 (and .def_26 (and .loc.9 .def_104)))))))))) .def_117) .def_121)) (and .def_94 (and .def_92 (and .def_89 (and .def_22 (and .def_72 (and .loc.14 (and .loc.13 (and .def_26 (and .loc.9 .def_125)))))))))) (and (= .x.28 (store C_13 H_14 47)) (and .def_121 (and .def_117 (and .def_94 (and .def_89 (and .def_67 (and .def_61 (and .def_21 (and .def_72 (and .loc.14 (and .loc.13 (and .def_26 (and .loc.9 .def_139)))))))))))))) (and .def_94 (and .def_92 (and .def_89 (and .def_21 (and .def_22 (and .def_76 (and .loc.14 (and .loc.12 (and .def_26 (and .loc.9 .def_124))))))))))) (and (= .x.28 (store C_13 H_14 46)) (and .def_121 (and .def_117 (and .def_94 (and .def_89 (and .def_67 (and .def_61 (and .def_22 (and .def_76 (and .loc.14 (and .loc.12 (and .def_26 (and .loc.9 .def_103)))))))))))))) (and .def_94 (and .def_92 (and .def_89 (and .def_24 (and .def_76 (and .def_72 (and .loc.14 (and .def_26 (and .loc.8 .def_125)))))))))) (and (= .x.28 (store C_13 H_14 45)) (and .def_121 (and .def_117 (and .def_94 (and .def_89 (and .def_67 (and .def_61 (and .def_21 (and .def_22 (and .def_76 (and .def_72 (and .loc.14 (and .def_26 (and .loc.9 .def_102))))))))))))))) (and .def_94 (and .def_92 (and .def_89 (and .def_21 (and .def_24 (and .def_79 (and .loc.13 (and .loc.12 (and .def_26 (and .loc.8 .def_124))))))))))) (and (= .x.28 (store C_13 H_14 44)) (and .def_121 (and .def_117 (and .def_94 (and .def_89 (and .def_67 (and .def_61 (and .def_24 (and .def_79 (and .loc.13 (and .loc.12 (and .def_26 .def_104))))))))))))) (and .def_94 (and .def_92 (and .def_89 (and .def_22 (and .def_24 (and .def_79 (and .def_72 (and .loc.13 (and .def_26 .def_125)))))))))) (and (= .x.28 (store C_13 H_14 43)) (and .def_121 (and .def_117 (and .def_94 (and .def_89 (and .def_67 (and .def_61 (and .def_21 (and .def_24 (and .def_79 (and .def_72 (and .loc.13 (and .def_26 .def_139)))))))))))))) .def_265) (and (not (<= .x.27 0)) (and (not (<= I_13 0)) (and .def_92 (and .def_89 (and .def_21 (and .def_22 (and .def_24 (and .def_79 (and .def_76 (and .def_26 .loc.12))))))))))) (and (= .x.28 (store C_13 H_14 42)) (and .def_121 (and .def_117 (and .def_94 (and .def_89 (and .def_67 (and .def_61 (and .def_22 (and .def_24 (and .def_79 (and .def_76 (and .loc.12 (and .def_26 (and .loc.7 (and .def_102 .def_265))))))))))))))))))))))))))))))))))))))))) (state |.x.27| |.y.11| |.x.28| |I_13| |.x.29| |.loc.12| |.loc.13| |.loc.14| |.loc.15| |.xtv.1| |.xpv.1|))))
(assert (forall ((|A_14| Int) (|B_13| Int) (|C_13| (Array Int Int)) (|D_13| Int) (|.y.6| Int) (|.loc.7| Bool) (|.loc.8| Bool) (|.loc.9| Bool) (|.loc.10| Bool) (|H_14| Int) (|H_15| Int) (|I_13| Int) (|.x.29| Int) (|.loc.12| Bool) (|.loc.15| Bool) (|.loc.13| Bool) (|.loc.14| Bool) (|.y.11| Int) (|.x.28| (Array Int Int)) (|.x.27| Int) (|.xtv.1| Int) (|.xpv.1| Int)) (=> (state |A_14| |B_13| |C_13| |D_13| |.y.6| |.loc.7| |.loc.8| |.loc.9| |.loc.10| |H_14| |H_15|) (let ((.def_60 (<= A_14 0))) (not (and (and .loc.10 (and (and (not .loc.7) (not .loc.8)) (not .loc.9))) (and (and (not (= (select C_13 H_15) 48)) (and (and (not (<= .y.6 D_13)) (not .def_60)) (= (+ A_14 (+ D_13 (* (- 1) H_15))) 0))) (or .def_60 (not (<= H_15 0))))))))))
(check-sat)
